NAME : LPS-n28-m139
COMMENT : (Lartu-Peter-Santi Plot, instance 10139 out of 39200. 28 customers.)
TYPE : CVRP
DIMENSION : 28
EDGE_WEIGHT_TYPE : EUC_2D
CAPACITY : 129
NODE_COORD_SECTION
 1 10 48
 2 36 22
 3 53 78
 4 19 65
 5 95 55
 6 1 61
 7 34 20
 8 57 87
 9 16 52
 10 2 63
 11 63 70
 12 20 66
 13 42 37
 14 67 23
 15 49 22
 16 30 70
 17 100 79
 18 16 63
 19 96 11
 20 87 80
 21 81 32
 22 33 0
 23 21 81
 24 53 75
 25 34 64
 26 99 15
 27 93 93
 28 74 63
DEMAND_SECTION
1 0
2 11
3 43
4 83
5 118
6 122
7 127
8 105
9 11
10 43
11 67
12 9
13 81
14 78
15 32
16 6
17 41
18 27
19 98
20 92
21 78
22 126
23 63
24 20
25 55
26 67
27 18
28 12
DEPOT_SECTION
 1
 -1
EOF
